language ESSENCE' 1.0

letting fixed be 
[
    [6,0,0,0,0,0,0,0,8],
    [5,0,0,9,0,8,0,0,7],
    [8,2,0,0,0,1,0,3,0],
    [3,4,0,2,0,9,0,8,0],
    [2,0,0,0,8,0,3,0,0],
    [1,8,0,3,0,7,0,2,5],
    [7,5,0,4,0,0,0,9,2],
    [9,0,0,0,0,5,0,0,4],
    [4,0,0,0,9,0,0,0,3]
]